29,  79,  95,  80,  74,  40,  48,  72,  52,  72,  47,  86,  78, 64,  24,  47,  58,  78,  43,  77,  88,  39,  78, 100, 100,  44, 71,  89,  59,  86,  50,  48,  83,  88,  77,  68,  99,  95, 100, 45,  39,  24,  69,  94,  92,  93,  34,  96,  61,  88